p cnf 252 1742
116 126 138 142 0
118 136 158 230 0
110 128 141 151 162 0
74 77 144 166 170 0
182 184 0
194 240 0
168 173 199 0
186 198 200 203 0
101 103 108 150 0
96 98 123 177 0
85 88 90 94 183 188 0
78 80 82 130 153 193 0
114 124 132 156 0
105 147 235 0
72 76 145 0
191 195 205 206 0
209 211 212 213 216 0
169 175 217 219 220 0
104 221 222 0
178 223 250 0
83 154 224 226 0
134 227 228 0
139 143 231 0
107 160 233 234 0
112 164 237 238 0
197 208 241 0
210 215 0
201 242 243 0
99 180 244 0
91 176 190 0
79 131 246 0
121 247 249 0
161 236 0
93 97 251 252 0
81 86 89 155 0
70 133 225 0
117 135 157 159 229 232 0
69 111 140 0
68 165 0
66 67 196 207 239 0
62 63 65 214 0
59 60 61 185 0
58 95 122 179 0
129 152 192 0
113 245 0
56 57 120 248 0
53 54 71 75 0
48 49 50 52 0
47 204 0
45 46 0
42 43 44 0
-136 -162 0
-77 -136 0
-64 -136 0
-136 -168 0
-77 -162 0
-64 -162 0
-162 -168 0
-64 -77 0
-77 -168 0
-64 -168 0
-94 -103 0
-82 -103 0
-103 -235 0
-40 -103 0
-82 -94 0
-94 -235 0
-40 -94 0
-82 -235 0
-40 -82 0
-40 -235 0
-39 -209 0
-39 -217 0
-39 -223 0
-39 -92 0
-209 -217 0
-209 -223 0
-92 -209 0
-217 -223 0
-92 -217 0
-92 -223 0
-160 -237 0
-38 -44 0
-103 -136 0
-39 -136 0
-39 -103 0
-94 -162 0
-162 -209 0
-160 -162 0
-94 -209 0
-94 -160 0
-160 -209 0
-77 -82 0
-77 -217 0
-77 -237 0
-82 -217 0
-82 -237 0
-217 -237 0
-64 -235 0
-64 -223 0
-38 -64 0
-223 -235 0
-38 -235 0
-38 -223 0
-40 -168 0
-92 -168 0
-44 -168 0
-40 -92 0
-40 -44 0
-44 -92 0
-126 -230 0
-37 -126 0
-126 -144 0
-126 -182 0
-126 -240 0
-126 -173 0
-37 -230 0
-144 -230 0
-182 -230 0
-230 -240 0
-173 -230 0
-37 -144 0
-37 -182 0
-37 -240 0
-37 -173 0
-144 -182 0
-144 -240 0
-144 -173 0
-182 -240 0
-173 -182 0
-173 -240 0
-150 -186 0
-123 -186 0
-80 -186 0
-132 -186 0
-119 -186 0
-35 -186 0
-123 -150 0
-80 -150 0
-132 -150 0
-119 -150 0
-35 -150 0
-80 -123 0
-123 -132 0
-119 -123 0
-35 -123 0
-80 -132 0
-80 -119 0
-35 -80 0
-119 -132 0
-35 -132 0
-35 -119 0
-51 -76 0
-76 -205 0
-76 -169 0
-33 -76 0
-76 -104 0
-32 -76 0
-51 -205 0
-51 -169 0
-33 -51 0
-51 -104 0
-32 -51 0
-169 -205 0
-33 -205 0
-104 -205 0
-32 -205 0
-33 -169 0
-104 -169 0
-32 -169 0
-33 -104 0
-32 -33 0
-32 -104 0
-83 -227 0
-83 -143 0
-73 -83 0
-83 -210 0
-143 -227 0
-73 -227 0
-210 -227 0
-73 -143 0
-143 -210 0
-73 -210 0
-31 -242 0
-30 -31 0
-31 -79 0
-31 -161 0
-30 -242 0
-79 -242 0
-161 -242 0
-30 -79 0
-30 -161 0
-79 -161 0
-89 -97 0
-70 -97 0
-97 -135 0
-29 -97 0
-70 -89 0
-89 -135 0
-29 -89 0
-70 -135 0
-29 -70 0
-29 -135 0
-65 -67 0
-67 -167 0
-67 -102 0
-58 -67 0
-65 -167 0
-65 -102 0
-58 -65 0
-102 -167 0
-58 -167 0
-58 -102 0
-126 -186 0
-76 -126 0
-83 -126 0
-31 -126 0
-97 -126 0
-67 -126 0
-76 -186 0
-83 -186 0
-31 -186 0
-97 -186 0
-67 -186 0
-76 -83 0
-31 -76 0
-76 -97 0
-67 -76 0
-31 -83 0
-83 -97 0
-67 -83 0
-31 -97 0
-31 -67 0
-67 -97 0
-150 -230 0
-51 -230 0
-227 -230 0
-230 -242 0
-89 -230 0
-65 -230 0
-51 -150 0
-150 -227 0
-150 -242 0
-89 -150 0
-65 -150 0
-51 -227 0
-51 -242 0
-51 -89 0
-51 -65 0
-227 -242 0
-89 -227 0
-65 -227 0
-89 -242 0
-65 -242 0
-65 -89 0
-37 -123 0
-37 -205 0
-37 -143 0
-30 -37 0
-37 -70 0
-37 -167 0
-123 -205 0
-123 -143 0
-30 -123 0
-70 -123 0
-123 -167 0
-143 -205 0
-30 -205 0
-70 -205 0
-167 -205 0
-30 -143 0
-70 -143 0
-143 -167 0
-30 -70 0
-30 -167 0
-70 -167 0
-80 -144 0
-144 -169 0
-135 -144 0
-102 -144 0
-80 -169 0
-80 -135 0
-80 -102 0
-135 -169 0
-102 -169 0
-102 -135 0
-132 -182 0
-33 -182 0
-29 -182 0
-58 -182 0
-33 -132 0
-29 -132 0
-58 -132 0
-29 -33 0
-33 -58 0
-29 -58 0
-119 -240 0
-104 -240 0
-73 -240 0
-79 -240 0
-104 -119 0
-73 -119 0
-79 -119 0
-73 -104 0
-79 -104 0
-73 -79 0
-35 -173 0
-32 -173 0
-173 -210 0
-161 -173 0
-32 -35 0
-35 -210 0
-35 -161 0
-32 -210 0
-32 -161 0
-161 -210 0
-108 -200 0
-98 -200 0
-90 -200 0
-193 -200 0
-124 -200 0
-98 -108 0
-90 -108 0
-108 -193 0
-108 -124 0
-90 -98 0
-98 -193 0
-98 -124 0
-90 -193 0
-90 -124 0
-124 -193 0
-28 -145 0
-145 -191 0
-145 -211 0
-145 -175 0
-27 -145 0
-28 -191 0
-28 -211 0
-28 -175 0
-27 -28 0
-191 -211 0
-175 -191 0
-27 -191 0
-175 -211 0
-27 -211 0
-27 -175 0
-134 -154 0
-139 -154 0
-154 -233 0
-154 -164 0
-109 -154 0
-134 -139 0
-134 -233 0
-134 -164 0
-109 -134 0
-139 -233 0
-139 -164 0
-109 -139 0
-164 -233 0
-109 -233 0
-109 -164 0
-26 -243 0
-26 -202 0
-26 -244 0
-26 -176 0
-26 -187 0
-202 -243 0
-243 -244 0
-176 -243 0
-187 -243 0
-202 -244 0
-176 -202 0
-187 -202 0
-176 -244 0
-187 -244 0
-176 -187 0
-86 -251 0
-225 -251 0
-125 -251 0
-229 -251 0
-36 -251 0
-69 -251 0
-86 -225 0
-86 -125 0
-86 -229 0
-36 -86 0
-69 -86 0
-125 -225 0
-225 -229 0
-36 -225 0
-69 -225 0
-125 -229 0
-36 -125 0
-69 -125 0
-36 -229 0
-69 -229 0
-36 -69 0
-63 -239 0
-172 -239 0
-185 -239 0
-149 -239 0
-122 -239 0
-24 -239 0
-63 -172 0
-63 -185 0
-63 -149 0
-63 -122 0
-24 -63 0
-172 -185 0
-149 -172 0
-122 -172 0
-24 -172 0
-149 -185 0
-122 -185 0
-24 -185 0
-122 -149 0
-24 -149 0
-24 -122 0
-23 -120 0
-34 -120 0
-75 -120 0
-52 -120 0
-120 -204 0
-46 -120 0
-23 -34 0
-23 -75 0
-23 -52 0
-23 -204 0
-23 -46 0
-34 -75 0
-34 -52 0
-34 -204 0
-34 -46 0
-52 -75 0
-75 -204 0
-46 -75 0
-52 -204 0
-46 -52 0
-46 -204 0
-145 -200 0
-154 -200 0
-26 -200 0
-200 -251 0
-200 -239 0
-120 -200 0
-145 -154 0
-26 -145 0
-145 -251 0
-145 -239 0
-120 -145 0
-26 -154 0
-154 -251 0
-154 -239 0
-120 -154 0
-26 -251 0
-26 -239 0
-26 -120 0
-239 -251 0
-120 -251 0
-120 -239 0
-28 -108 0
-108 -134 0
-108 -243 0
-86 -108 0
-63 -108 0
-23 -108 0
-28 -134 0
-28 -243 0
-28 -86 0
-28 -63 0
-23 -28 0
-134 -243 0
-86 -134 0
-63 -134 0
-23 -134 0
-86 -243 0
-63 -243 0
-23 -243 0
-63 -86 0
-23 -86 0
-23 -63 0
-98 -191 0
-98 -139 0
-98 -202 0
-98 -225 0
-98 -172 0
-34 -98 0
-139 -191 0
-191 -202 0
-191 -225 0
-172 -191 0
-34 -191 0
-139 -202 0
-139 -225 0
-139 -172 0
-34 -139 0
-202 -225 0
-172 -202 0
-34 -202 0
-172 -225 0
-34 -225 0
-34 -172 0
-90 -211 0
-90 -233 0
-90 -244 0
-90 -125 0
-90 -185 0
-75 -90 0
-211 -233 0
-211 -244 0
-125 -211 0
-185 -211 0
-75 -211 0
-233 -244 0
-125 -233 0
-185 -233 0
-75 -233 0
-125 -244 0
-185 -244 0
-75 -244 0
-125 -185 0
-75 -125 0
-75 -185 0
-175 -193 0
-164 -193 0
-176 -193 0
-193 -229 0
-149 -193 0
-52 -193 0
-164 -175 0
-175 -176 0
-175 -229 0
-149 -175 0
-52 -175 0
-164 -176 0
-164 -229 0
-149 -164 0
-52 -164 0
-176 -229 0
-149 -176 0
-52 -176 0
-149 -229 0
-52 -229 0
-52 -149 0
-27 -124 0
-109 -124 0
-124 -187 0
-36 -124 0
-122 -124 0
-124 -204 0
-27 -109 0
-27 -187 0
-27 -36 0
-27 -122 0
-27 -204 0
-109 -187 0
-36 -109 0
-109 -122 0
-109 -204 0
-36 -187 0
-122 -187 0
-187 -204 0
-36 -122 0
-36 -204 0
-122 -204 0
-24 -69 0
-46 -69 0
-24 -46 0
-116 -118 0
-207 -214 0
-192 -207 0
-192 -214 0
-22 -57 0
-57 -174 0
-22 -174 0
-116 -207 0
-57 -116 0
-57 -207 0
-118 -214 0
-22 -118 0
-22 -214 0
-174 -192 0
-153 -183 0
-114 -183 0
-55 -183 0
-21 -183 0
-114 -153 0
-55 -153 0
-21 -153 0
-55 -114 0
-21 -114 0
-21 -55 0
-212 -219 0
-41 -212 0
-212 -221 0
-20 -212 0
-41 -219 0
-219 -221 0
-20 -219 0
-41 -221 0
-20 -41 0
-20 -221 0
-224 -228 0
-224 -234 0
-224 -238 0
-127 -224 0
-228 -234 0
-228 -238 0
-127 -228 0
-234 -238 0
-127 -234 0
-127 -238 0
-19 -201 0
-19 -99 0
-19 -91 0
-19 -84 0
-99 -201 0
-91 -201 0
-84 -201 0
-91 -99 0
-84 -99 0
-84 -91 0
-81 -252 0
-115 -252 0
-117 -252 0
-106 -252 0
-111 -252 0
-18 -252 0
-81 -115 0
-81 -117 0
-81 -106 0
-81 -111 0
-18 -81 0
-115 -117 0
-106 -115 0
-111 -115 0
-18 -115 0
-106 -117 0
-111 -117 0
-18 -117 0
-106 -111 0
-18 -106 0
-18 -111 0
-62 -196 0
-61 -196 0
-16 -196 0
-179 -196 0
-189 -196 0
-196 -245 0
-61 -62 0
-16 -62 0
-62 -179 0
-62 -189 0
-62 -245 0
-16 -61 0
-61 -179 0
-61 -189 0
-61 -245 0
-16 -179 0
-16 -189 0
-16 -245 0
-179 -189 0
-179 -245 0
-189 -245 0
-15 -248 0
-54 -248 0
-50 -248 0
-47 -248 0
-45 -248 0
-43 -248 0
-15 -54 0
-15 -50 0
-15 -47 0
-15 -45 0
-15 -43 0
-50 -54 0
-47 -54 0
-45 -54 0
-43 -54 0
-47 -50 0
-45 -50 0
-43 -50 0
-45 -47 0
-43 -47 0
-43 -45 0
-19 -224 0
-224 -252 0
-196 -224 0
-224 -248 0
-19 -252 0
-19 -196 0
-19 -248 0
-196 -252 0
-248 -252 0
-196 -248 0
-201 -228 0
-81 -228 0
-62 -228 0
-15 -228 0
-81 -201 0
-62 -201 0
-15 -201 0
-62 -81 0
-15 -81 0
-15 -62 0
-183 -212 0
-183 -234 0
-99 -183 0
-115 -183 0
-61 -183 0
-54 -183 0
-212 -234 0
-99 -212 0
-115 -212 0
-61 -212 0
-54 -212 0
-99 -234 0
-115 -234 0
-61 -234 0
-54 -234 0
-99 -115 0
-61 -99 0
-54 -99 0
-61 -115 0
-54 -115 0
-54 -61 0
-153 -219 0
-153 -238 0
-91 -153 0
-117 -153 0
-16 -153 0
-50 -153 0
-219 -238 0
-91 -219 0
-117 -219 0
-16 -219 0
-50 -219 0
-91 -238 0
-117 -238 0
-16 -238 0
-50 -238 0
-91 -117 0
-16 -91 0
-50 -91 0
-16 -117 0
-50 -117 0
-16 -50 0
-41 -114 0
-114 -127 0
-84 -114 0
-106 -114 0
-114 -179 0
-47 -114 0
-41 -127 0
-41 -84 0
-41 -106 0
-41 -179 0
-41 -47 0
-84 -127 0
-106 -127 0
-127 -179 0
-47 -127 0
-84 -106 0
-84 -179 0
-47 -84 0
-106 -179 0
-47 -106 0
-47 -179 0
-55 -221 0
-55 -111 0
-55 -189 0
-45 -55 0
-111 -221 0
-189 -221 0
-45 -221 0
-111 -189 0
-45 -111 0
-45 -189 0
-20 -21 0
-18 -21 0
-21 -245 0
-21 -43 0
-18 -20 0
-20 -245 0
-20 -43 0
-18 -245 0
-18 -43 0
-43 -245 0
-74 -151 0
-236 -247 0
-14 -93 0
-93 -159 0
-68 -93 0
-13 -93 0
-14 -159 0
-14 -68 0
-13 -14 0
-68 -159 0
-13 -159 0
-13 -68 0
-60 -66 0
-12 -66 0
-66 -152 0
-66 -113 0
-12 -60 0
-60 -152 0
-60 -113 0
-12 -152 0
-12 -113 0
-113 -152 0
-53 -56 0
-49 -56 0
-56 -218 0
-42 -56 0
-49 -53 0
-53 -218 0
-42 -53 0
-49 -218 0
-42 -49 0
-42 -218 0
-66 -93 0
-56 -93 0
-56 -66 0
-14 -151 0
-60 -151 0
-53 -151 0
-14 -60 0
-14 -53 0
-53 -60 0
-74 -159 0
-12 -74 0
-49 -74 0
-12 -159 0
-49 -159 0
-12 -49 0
-68 -247 0
-152 -247 0
-218 -247 0
-68 -152 0
-68 -218 0
-152 -218 0
-13 -236 0
-113 -236 0
-42 -236 0
-13 -113 0
-13 -42 0
-42 -113 0
-138 -163 0
-110 -138 0
-138 -194 0
-25 -138 0
-110 -163 0
-163 -194 0
-25 -163 0
-110 -194 0
-25 -110 0
-25 -194 0
-177 -203 0
-188 -203 0
-11 -203 0
-147 -203 0
-177 -188 0
-11 -177 0
-147 -177 0
-11 -188 0
-147 -188 0
-11 -147 0
-72 -206 0
-72 -213 0
-72 -222 0
-72 -250 0
-206 -213 0
-206 -222 0
-206 -250 0
-213 -222 0
-213 -250 0
-222 -250 0
-226 -231 0
-181 -226 0
-226 -241 0
-181 -231 0
-231 -241 0
-181 -241 0
-148 -171 0
-131 -171 0
-121 -171 0
-131 -148 0
-121 -148 0
-121 -131 0
-138 -203 0
-72 -138 0
-138 -226 0
-138 -171 0
-72 -203 0
-203 -226 0
-171 -203 0
-72 -226 0
-72 -171 0
-171 -226 0
-163 -177 0
-163 -206 0
-163 -231 0
-148 -163 0
-177 -206 0
-177 -231 0
-148 -177 0
-206 -231 0
-148 -206 0
-148 -231 0
-110 -188 0
-110 -213 0
-188 -213 0
-11 -194 0
-194 -222 0
-181 -194 0
-131 -194 0
-11 -222 0
-11 -181 0
-11 -131 0
-181 -222 0
-131 -222 0
-131 -181 0
-25 -147 0
-25 -250 0
-25 -241 0
-25 -121 0
-147 -250 0
-147 -241 0
-121 -147 0
-241 -250 0
-121 -250 0
-121 -241 0
-10 -158 0
-141 -158 0
-158 -166 0
-8 -158 0
-158 -199 0
-10 -141 0
-10 -166 0
-8 -10 0
-10 -199 0
-141 -166 0
-8 -141 0
-141 -199 0
-8 -166 0
-166 -199 0
-8 -199 0
-96 -101 0
-88 -101 0
-101 -130 0
-101 -105 0
-7 -101 0
-88 -96 0
-96 -130 0
-96 -105 0
-7 -96 0
-88 -130 0
-88 -105 0
-7 -88 0
-105 -130 0
-7 -130 0
-7 -105 0
-6 -195 0
-6 -216 0
-6 -220 0
-6 -178 0
-5 -6 0
-195 -216 0
-195 -220 0
-178 -195 0
-5 -195 0
-216 -220 0
-178 -216 0
-5 -216 0
-178 -220 0
-5 -220 0
-5 -178 0
-208 -215 0
-133 -155 0
-137 -155 0
-155 -232 0
-133 -137 0
-133 -232 0
-137 -232 0
-4 -146 0
-71 -146 0
-48 -146 0
-4 -71 0
-4 -48 0
-48 -71 0
-101 -158 0
-6 -158 0
-155 -158 0
-146 -158 0
-6 -101 0
-101 -155 0
-101 -146 0
-6 -155 0
-6 -146 0
-146 -155 0
-10 -96 0
-10 -195 0
-10 -133 0
-4 -10 0
-96 -195 0
-96 -133 0
-4 -96 0
-133 -195 0
-4 -195 0
-4 -133 0
-88 -141 0
-141 -216 0
-137 -141 0
-71 -141 0
-88 -216 0
-88 -137 0
-71 -88 0
-137 -216 0
-71 -216 0
-71 -137 0
-130 -166 0
-166 -220 0
-166 -232 0
-48 -166 0
-130 -220 0
-130 -232 0
-48 -130 0
-220 -232 0
-48 -220 0
-48 -232 0
-8 -105 0
-8 -178 0
-8 -208 0
-105 -178 0
-105 -208 0
-178 -208 0
-7 -199 0
-5 -199 0
-199 -215 0
-5 -7 0
-7 -215 0
-5 -215 0
-128 -142 0
-142 -170 0
-142 -184 0
-128 -170 0
-128 -184 0
-170 -184 0
-85 -198 0
-78 -198 0
-156 -198 0
-78 -85 0
-85 -156 0
-78 -156 0
-107 -112 0
-3 -107 0
-17 -107 0
-107 -197 0
-3 -112 0
-17 -112 0
-112 -197 0
-3 -17 0
-3 -197 0
-17 -197 0
-180 -190 0
-2 -180 0
-180 -246 0
-180 -249 0
-2 -190 0
-190 -246 0
-190 -249 0
-2 -246 0
-2 -249 0
-246 -249 0
-1 -157 0
-1 -9 0
-1 -140 0
-1 -165 0
-9 -157 0
-140 -157 0
-157 -165 0
-9 -140 0
-9 -165 0
-140 -165 0
-59 -100 0
-59 -95 0
-59 -87 0
-59 -129 0
-95 -100 0
-87 -100 0
-100 -129 0
-87 -95 0
-95 -129 0
-87 -129 0
-142 -198 0
-85 -128 0
-107 -128 0
-128 -180 0
-1 -128 0
-59 -128 0
-85 -107 0
-85 -180 0
-1 -85 0
-59 -85 0
-107 -180 0
-1 -107 0
-59 -107 0
-1 -180 0
-59 -180 0
-1 -59 0
-78 -170 0
-112 -170 0
-170 -190 0
-157 -170 0
-100 -170 0
-78 -112 0
-78 -190 0
-78 -157 0
-78 -100 0
-112 -190 0
-112 -157 0
-100 -112 0
-157 -190 0
-100 -190 0
-100 -157 0
-156 -184 0
-3 -184 0
-2 -184 0
-9 -184 0
-95 -184 0
-3 -156 0
-2 -156 0
-9 -156 0
-95 -156 0
-2 -3 0
-3 -9 0
-3 -95 0
-2 -9 0
-2 -95 0
-9 -95 0
-17 -246 0
-17 -140 0
-17 -87 0
-140 -246 0
-87 -246 0
-87 -140 0
-197 -249 0
-165 -197 0
-129 -197 0
-165 -249 0
-129 -249 0
-129 -165 0
-103 -136 0
-39 -136 0
-39 -103 0
-126 -230 0
-37 -126 0
-126 -186 0
-126 -150 0
-123 -126 0
-76 -126 0
-51 -126 0
-126 -205 0
-37 -230 0
-186 -230 0
-150 -230 0
-123 -230 0
-76 -230 0
-51 -230 0
-205 -230 0
-37 -186 0
-37 -150 0
-37 -123 0
-37 -76 0
-37 -51 0
-37 -205 0
-150 -186 0
-123 -186 0
-76 -186 0
-51 -186 0
-186 -205 0
-123 -150 0
-76 -150 0
-51 -150 0
-150 -205 0
-76 -123 0
-51 -123 0
-123 -205 0
-51 -76 0
-76 -205 0
-51 -205 0
-108 -200 0
-98 -200 0
-145 -200 0
-28 -200 0
-191 -200 0
-98 -108 0
-108 -145 0
-28 -108 0
-108 -191 0
-98 -145 0
-28 -98 0
-98 -191 0
-28 -145 0
-145 -191 0
-28 -191 0
-116 -118 0
-138 -163 0
-138 -203 0
-138 -177 0
-72 -138 0
-138 -206 0
-163 -203 0
-163 -177 0
-72 -163 0
-163 -206 0
-177 -203 0
-72 -203 0
-203 -206 0
-72 -177 0
-177 -206 0
-72 -206 0
-10 -158 0
-101 -158 0
-96 -158 0
-6 -158 0
-158 -195 0
-10 -101 0
-10 -96 0
-6 -10 0
-10 -195 0
-96 -101 0
-6 -101 0
-101 -195 0
-6 -96 0
-96 -195 0
-6 -195 0
-142 -198 0
-77 -162 0
-94 -162 0
-82 -162 0
-162 -209 0
-162 -217 0
-77 -94 0
-77 -82 0
-77 -209 0
-77 -217 0
-82 -94 0
-94 -209 0
-94 -217 0
-82 -209 0
-82 -217 0
-209 -217 0
-144 -182 0
-80 -144 0
-132 -144 0
-144 -169 0
-33 -144 0
-80 -182 0
-132 -182 0
-169 -182 0
-33 -182 0
-80 -132 0
-80 -169 0
-33 -80 0
-132 -169 0
-33 -132 0
-33 -169 0
-90 -193 0
-90 -124 0
-90 -211 0
-90 -175 0
-27 -90 0
-124 -193 0
-193 -211 0
-175 -193 0
-27 -193 0
-124 -211 0
-124 -175 0
-27 -124 0
-175 -211 0
-27 -211 0
-27 -175 0
-153 -183 0
-114 -183 0
-183 -212 0
-183 -219 0
-41 -183 0
-114 -153 0
-153 -212 0
-153 -219 0
-41 -153 0
-114 -212 0
-114 -219 0
-41 -114 0
-212 -219 0
-41 -212 0
-41 -219 0
-74 -151 0
-110 -188 0
-110 -213 0
-188 -213 0
-141 -166 0
-88 -141 0
-130 -141 0
-141 -216 0
-141 -220 0
-88 -166 0
-130 -166 0
-166 -216 0
-166 -220 0
-88 -130 0
-88 -216 0
-88 -220 0
-130 -216 0
-130 -220 0
-216 -220 0
-128 -170 0
-128 -184 0
-85 -128 0
-78 -128 0
-128 -156 0
-170 -184 0
-85 -170 0
-78 -170 0
-156 -170 0
-85 -184 0
-78 -184 0
-156 -184 0
-78 -85 0
-85 -156 0
-78 -156 0
-64 -168 0
-64 -235 0
-40 -64 0
-64 -223 0
-64 -92 0
-168 -235 0
-40 -168 0
-168 -223 0
-92 -168 0
-40 -235 0
-223 -235 0
-92 -235 0
-40 -223 0
-40 -92 0
-92 -223 0
-173 -240 0
-119 -240 0
-35 -240 0
-104 -240 0
-32 -240 0
-119 -173 0
-35 -173 0
-104 -173 0
-32 -173 0
-35 -119 0
-104 -119 0
-32 -119 0
-35 -104 0
-32 -35 0
-32 -104 0
-21 -55 0
-55 -221 0
-20 -55 0
-21 -221 0
-20 -21 0
-20 -221 0
-25 -194 0
-11 -194 0
-147 -194 0
-194 -222 0
-194 -250 0
-11 -25 0
-25 -147 0
-25 -222 0
-25 -250 0
-11 -147 0
-11 -222 0
-11 -250 0
-147 -222 0
-147 -250 0
-222 -250 0
-8 -199 0
-8 -105 0
-7 -8 0
-8 -178 0
-5 -8 0
-105 -199 0
-7 -199 0
-178 -199 0
-5 -199 0
-7 -105 0
-105 -178 0
-5 -105 0
-7 -178 0
-5 -7 0
-5 -178 0
-83 -227 0
-83 -143 0
-31 -83 0
-83 -242 0
-30 -83 0
-143 -227 0
-31 -227 0
-227 -242 0
-30 -227 0
-31 -143 0
-143 -242 0
-30 -143 0
-31 -242 0
-30 -31 0
-30 -242 0
-134 -154 0
-139 -154 0
-26 -154 0
-154 -243 0
-154 -202 0
-134 -139 0
-26 -134 0
-134 -243 0
-134 -202 0
-26 -139 0
-139 -243 0
-139 -202 0
-26 -243 0
-26 -202 0
-202 -243 0
-224 -228 0
-19 -224 0
-201 -224 0
-19 -228 0
-201 -228 0
-19 -201 0
-226 -231 0
-171 -226 0
-148 -226 0
-171 -231 0
-148 -231 0
-148 -171 0
-160 -237 0
-164 -233 0
-109 -233 0
-233 -244 0
-176 -233 0
-187 -233 0
-109 -164 0
-164 -244 0
-164 -176 0
-164 -187 0
-109 -244 0
-109 -176 0
-109 -187 0
-176 -244 0
-187 -244 0
-176 -187 0
-234 -238 0
-127 -234 0
-99 -234 0
-91 -234 0
-84 -234 0
-127 -238 0
-99 -238 0
-91 -238 0
-84 -238 0
-99 -127 0
-91 -127 0
-84 -127 0
-91 -99 0
-84 -99 0
-84 -91 0
-107 -112 0
-3 -107 0
-107 -180 0
-107 -190 0
-2 -107 0
-3 -112 0
-112 -180 0
-112 -190 0
-2 -112 0
-3 -180 0
-3 -190 0
-2 -3 0
-180 -190 0
-2 -180 0
-2 -190 0
-73 -210 0
-73 -79 0
-73 -161 0
-79 -210 0
-161 -210 0
-79 -161 0
-236 -247 0
-181 -241 0
-131 -181 0
-121 -181 0
-131 -241 0
-121 -241 0
-121 -131 0
-208 -215 0
-17 -197 0
-17 -246 0
-17 -249 0
-197 -246 0
-197 -249 0
-246 -249 0
-89 -97 0
-70 -97 0
-67 -97 0
-65 -97 0
-97 -167 0
-70 -89 0
-67 -89 0
-65 -89 0
-89 -167 0
-67 -70 0
-65 -70 0
-70 -167 0
-65 -67 0
-67 -167 0
-65 -167 0
-86 -251 0
-225 -251 0
-239 -251 0
-63 -251 0
-172 -251 0
-120 -251 0
-23 -251 0
-34 -251 0
-86 -225 0
-86 -239 0
-63 -86 0
-86 -172 0
-86 -120 0
-23 -86 0
-34 -86 0
-225 -239 0
-63 -225 0
-172 -225 0
-120 -225 0
-23 -225 0
-34 -225 0
-63 -239 0
-172 -239 0
-120 -239 0
-23 -239 0
-34 -239 0
-63 -172 0
-63 -120 0
-23 -63 0
-34 -63 0
-120 -172 0
-23 -172 0
-34 -172 0
-23 -120 0
-34 -120 0
-23 -34 0
-207 -214 0
-57 -207 0
-22 -207 0
-57 -214 0
-22 -214 0
-22 -57 0
-81 -252 0
-196 -252 0
-62 -252 0
-248 -252 0
-15 -252 0
-81 -196 0
-62 -81 0
-81 -248 0
-15 -81 0
-62 -196 0
-196 -248 0
-15 -196 0
-62 -248 0
-15 -62 0
-15 -248 0
-66 -93 0
-56 -93 0
-56 -66 0
-133 -155 0
-146 -155 0
-4 -155 0
-133 -146 0
-4 -133 0
-4 -146 0
-29 -135 0
-102 -135 0
-58 -135 0
-29 -102 0
-29 -58 0
-58 -102 0
-125 -229 0
-36 -125 0
-125 -185 0
-125 -149 0
-122 -125 0
-75 -125 0
-52 -125 0
-125 -204 0
-36 -229 0
-185 -229 0
-149 -229 0
-122 -229 0
-75 -229 0
-52 -229 0
-204 -229 0
-36 -185 0
-36 -149 0
-36 -122 0
-36 -75 0
-36 -52 0
-36 -204 0
-149 -185 0
-122 -185 0
-75 -185 0
-52 -185 0
-185 -204 0
-122 -149 0
-75 -149 0
-52 -149 0
-149 -204 0
-75 -122 0
-52 -122 0
-122 -204 0
-52 -75 0
-75 -204 0
-52 -204 0
-115 -117 0
-106 -115 0
-61 -115 0
-16 -115 0
-115 -179 0
-54 -115 0
-50 -115 0
-47 -115 0
-106 -117 0
-61 -117 0
-16 -117 0
-117 -179 0
-54 -117 0
-50 -117 0
-47 -117 0
-61 -106 0
-16 -106 0
-106 -179 0
-54 -106 0
-50 -106 0
-47 -106 0
-16 -61 0
-61 -179 0
-54 -61 0
-50 -61 0
-47 -61 0
-16 -179 0
-16 -54 0
-16 -50 0
-16 -47 0
-54 -179 0
-50 -179 0
-47 -179 0
-50 -54 0
-47 -54 0
-47 -50 0
-14 -159 0
-14 -60 0
-12 -14 0
-14 -53 0
-14 -49 0
-60 -159 0
-12 -159 0
-53 -159 0
-49 -159 0
-12 -60 0
-53 -60 0
-49 -60 0
-12 -53 0
-12 -49 0
-49 -53 0
-137 -232 0
-71 -137 0
-48 -137 0
-71 -232 0
-48 -232 0
-48 -71 0
-1 -157 0
-1 -9 0
-1 -59 0
-1 -100 0
-1 -95 0
-9 -157 0
-59 -157 0
-100 -157 0
-95 -157 0
-9 -59 0
-9 -100 0
-9 -95 0
-59 -100 0
-59 -95 0
-95 -100 0
-38 -44 0
-24 -69 0
-46 -69 0
-24 -46 0
-174 -192 0
-18 -111 0
-111 -189 0
-111 -245 0
-45 -111 0
-43 -111 0
-18 -189 0
-18 -245 0
-18 -45 0
-18 -43 0
-189 -245 0
-45 -189 0
-43 -189 0
-45 -245 0
-43 -245 0
-43 -45 0
-13 -68 0
-68 -152 0
-68 -113 0
-68 -218 0
-42 -68 0
-13 -152 0
-13 -113 0
-13 -218 0
-13 -42 0
-113 -152 0
-152 -218 0
-42 -152 0
-113 -218 0
-42 -113 0
-42 -218 0
-140 -165 0
-87 -140 0
-129 -140 0
-87 -165 0
-129 -165 0
-87 -129 0
